# Objective value = 20
C 20
f(1,0) 1
x(1,2,0) 1
x(2,2,0) 0
x(3,2,0) 0
f(2,0) 0
f(3,0) 1
f(1,1) 1
f(1,2) 1
f(1,3) 1
f(1,4) 1
x(3,1,4) 0
f(1,5) 1
x(2,1,5) 0
x(3,1,5) 0
f(1,6) 1
x(2,1,6) 0
x(3,1,6) 0
f(1,7) 1
x(2,1,7) 0
x(3,1,7) 0
f(1,8) 0
x(2,1,8) 0
x(1,1,8) 1
x(3,1,8) 0
f(1,9) 0
x(2,1,9) 0
x(1,1,9) 0
x(3,1,9) 0
f(1,10) 0
x(2,1,10) 0
x(1,1,10) 0
x(3,1,10) 0
f(1,11) 0
x(2,1,11) 0
x(1,1,11) 0
x(3,1,11) 0
f(1,12) 0
x(2,1,12) 0
x(1,1,12) 0
x(3,1,12) 0
f(1,13) 0
x(2,1,13) 1
x(1,1,13) 0
x(3,1,13) 0
f(1,14) 0
x(1,1,14) 0
x(3,1,14) 0
f(1,15) 0
x(1,1,15) 0
x(3,1,15) 0
f(1,16) 0
x(3,1,16) 0
f(1,17) 0
x(3,1,17) 1
f(1,18) 0
f(1,19) 0
f(1,20) 1
x(1,2,1) 0
x(2,2,1) 0
x(3,2,1) 0
f(2,1) 0
x(1,2,2) 0
x(2,2,2) 0
x(3,2,2) 0
f(2,2) 0
x(1,2,3) 0
x(2,2,3) 0
x(3,2,3) 1
f(2,3) 0
x(1,2,4) 0
x(2,2,4) 0
x(3,2,4) 0
f(2,4) 0
x(1,2,5) 0
x(2,2,5) 0
x(3,2,5) 0
f(2,5) 0
x(1,2,6) 0
x(2,2,6) 0
x(3,2,6) 0
f(2,6) 1
x(1,2,7) 0
x(2,2,7) 0
x(3,2,7) 0
f(2,7) 1
x(2,2,8) 1
x(3,2,8) 0
f(2,8) 0
x(3,2,9) 0
f(2,9) 0
x(3,2,10) 0
f(2,10) 0
x(3,2,11) 0
f(2,11) 0
x(3,2,12) 0
f(2,12) 0
x(3,2,13) 0
f(2,13) 1
f(2,14) 1
f(2,15) 1
f(2,16) 1
f(2,17) 1
f(2,18) 1
f(2,19) 1
f(2,20) 1
f(3,1) 1
f(3,2) 1
x(1,3,3) 1
x(3,3,3) 0
f(3,3) 0
x(1,3,4) 0
x(3,3,4) 0
f(3,4) 0
x(1,3,5) 0
x(3,3,5) 0
f(3,5) 0
x(1,3,6) 0
x(3,3,6) 0
f(3,6) 0
x(1,3,7) 0
x(3,3,7) 0
f(3,7) 0
x(1,3,8) 0
x(3,3,8) 0
f(3,8) 1
x(1,3,9) 0
x(3,3,9) 0
f(3,9) 1
x(2,3,9) 0
x(1,3,10) 0
x(3,3,10) 0
f(3,10) 1
x(2,3,10) 0
x(3,3,11) 0
f(3,11) 1
x(2,3,11) 0
x(3,3,12) 0
f(3,12) 1
x(2,3,12) 0
x(3,3,13) 0
f(3,13) 1
x(2,3,13) 0
x(3,3,14) 1
f(3,14) 0
x(2,3,14) 0
x(3,3,15) 0
f(3,15) 1
x(2,3,15) 0
x(3,3,16) 0
f(3,16) 1
x(2,3,16) 0
f(3,17) 0
x(2,3,17) 1
f(3,18) 0
f(3,19) 0
f(3,20) 1
e(1,2,0) 0
e(2,2,0) 1
e(3,2,0) 1
e(1,2,1) 0
e(1,2,2) 0
e(1,2,3) 0
e(1,2,4) 0
e(1,2,5) 0
e(1,2,6) 0
e(1,2,7) 0
e(2,2,1) 1
e(2,2,2) 1
e(2,2,3) 1
e(2,2,4) 1
e(2,2,5) 1
e(2,2,6) 1
e(2,2,7) 1
e(2,2,8) 0
e(3,2,1) 1
e(3,2,2) 1
e(3,2,3) 0
e(3,2,4) 0
e(3,2,5) 0
e(3,2,6) 0
e(3,2,7) 0
e(3,2,8) 0
e(3,2,9) 0
e(3,2,10) 0
e(3,2,11) 0
e(3,2,12) 0
e(3,2,13) 0
e(1,3,3) 0
e(1,3,4) 0
e(1,3,5) 0
e(1,3,6) 0
e(1,3,7) 0
e(1,3,8) 0
e(1,3,9) 0
e(1,3,10) 0
e(2,1,5) 0
e(2,1,6) 0
e(2,1,7) 0
e(2,1,8) 0
e(2,1,9) 0
e(2,1,10) 0
e(2,1,11) 0
e(2,1,12) 0
e(2,1,13) 0
e(3,3,3) 0
e(3,3,4) 0
e(3,3,5) 0
e(3,3,6) 1
e(3,3,7) 1
e(3,3,8) 1
e(3,3,9) 1
e(3,3,10) 1
e(3,3,11) 1
e(3,3,12) 1
e(3,3,13) 1
e(3,3,14) 0
e(3,3,15) 0
e(3,3,16) 0
e(1,1,8) 0
e(1,1,9) 0
e(1,1,10) 0
e(1,1,11) 0
e(1,1,12) 0
e(1,1,13) 0
e(1,1,14) 0
e(1,1,15) 0
e(2,3,9) 0
e(2,3,10) 0
e(2,3,11) 0
e(2,3,12) 0
e(2,3,13) 0
e(2,3,14) 0
e(2,3,15) 0
e(2,3,16) 0
e(2,3,17) 0
e(3,1,4) 0
e(3,1,5) 0
e(3,1,6) 0
e(3,1,7) 0
e(3,1,8) 0
e(3,1,9) 0
e(3,1,10) 0
e(3,1,11) 0
e(3,1,12) 0
e(3,1,13) 0
e(3,1,14) 0
e(3,1,15) 1
e(3,1,16) 1
e(3,1,17) 0
